
Gurobi 7.5.1 (win64, Python) logging started 04/24/18 00:50:51

Academic license - for non-commercial use only
Parameter OutputFlag unchanged
   Value: 1  Min: 0  Max: 1  Default: 1
Optimize a model with 124 rows, 98 columns and 479 nonzeros
Variable types: 9 continuous, 89 integer (56 binary)
Coefficient statistics:
  Matrix range     [1e+00, 2e+01]
  Objective range  [1e+00, 1e+00]
  Bounds range     [1e+00, 1e+00]
  RHS range        [1e+00, 7e+00]
Found heuristic solution: objective 8
Presolve removed 82 rows and 91 columns
Presolve time: 0.00s
Presolved: 42 rows, 7 columns, 84 nonzeros
Variable types: 0 continuous, 7 integer (0 binary)

Explored 0 nodes (0 simplex iterations) in 0.07 seconds
Thread count was 4 (of 4 available processors)

Solution count 1: 8 

Optimal solution found (tolerance 1.00e-04)
Best objective 8.000000000000e+00, best bound 8.000000000000e+00, gap 0.0000%
Warning: variables 0 and 1 have the same name "routes"
Warning: default variable names used to write solution file

Gurobi 7.5.1 (win64, Python) logging started 04/24/18 01:01:14

Academic license - for non-commercial use only
Parameter OutputFlag unchanged
   Value: 1  Min: 0  Max: 1  Default: 1
Optimize a model with 124 rows, 98 columns and 479 nonzeros
Variable types: 9 continuous, 89 integer (56 binary)
Coefficient statistics:
  Matrix range     [1e+00, 2e+01]
  Objective range  [1e+00, 1e+00]
  Bounds range     [1e+00, 1e+00]
  RHS range        [1e+00, 7e+00]
Found heuristic solution: objective 8
Presolve removed 82 rows and 91 columns
Presolve time: 0.00s
Presolved: 42 rows, 7 columns, 84 nonzeros
Variable types: 0 continuous, 7 integer (0 binary)

Explored 0 nodes (0 simplex iterations) in 0.06 seconds
Thread count was 4 (of 4 available processors)

Solution count 1: 8 

Optimal solution found (tolerance 1.00e-04)
Best objective 8.000000000000e+00, best bound 8.000000000000e+00, gap 0.0000%
Warning: variables 0 and 1 have the same name "routes"
Warning: default variable names used to write solution file

Gurobi 7.5.1 (win64, Python) logging started 04/24/18 01:01:39

Academic license - for non-commercial use only
Parameter OutputFlag unchanged
   Value: 1  Min: 0  Max: 1  Default: 1
Optimize a model with 124 rows, 98 columns and 479 nonzeros
Variable types: 9 continuous, 89 integer (56 binary)
Coefficient statistics:
  Matrix range     [1e+00, 2e+01]
  Objective range  [1e+00, 1e+00]
  Bounds range     [1e+00, 1e+00]
  RHS range        [1e+00, 7e+00]
Found heuristic solution: objective 8
Presolve removed 82 rows and 91 columns
Presolve time: 0.00s
Presolved: 42 rows, 7 columns, 84 nonzeros
Variable types: 0 continuous, 7 integer (0 binary)

Explored 0 nodes (0 simplex iterations) in 0.11 seconds
Thread count was 4 (of 4 available processors)

Solution count 1: 8 

Optimal solution found (tolerance 1.00e-04)
Best objective 8.000000000000e+00, best bound 8.000000000000e+00, gap 0.0000%
Warning: variables 0 and 1 have the same name "routes"
Warning: default variable names used to write solution file

Gurobi 7.5.1 (win64, Python) logging started 04/24/18 01:02:10

Academic license - for non-commercial use only

Gurobi 7.5.1 (win64, Python) logging started 04/24/18 01:05:27

Academic license - for non-commercial use only

Gurobi 7.5.1 (win64, Python) logging started 04/24/18 01:09:55

Academic license - for non-commercial use only

Gurobi 7.5.1 (win64, Python) logging started 04/24/18 01:10:33

Academic license - for non-commercial use only

Gurobi 7.5.1 (win64, Python) logging started 04/24/18 01:23:47

Academic license - for non-commercial use only

Gurobi 7.5.1 (win64, Python) logging started 04/24/18 01:43:07

Academic license - for non-commercial use only

Gurobi 7.5.1 (win64, Python) logging started 04/24/18 01:46:17

Academic license - for non-commercial use only

Gurobi 7.5.1 (win64, Python) logging started 04/24/18 01:46:49

Academic license - for non-commercial use only

Gurobi 7.5.1 (win64, Python) logging started 04/24/18 01:47:42

Academic license - for non-commercial use only

Gurobi 7.5.1 (win64, Python) logging started 04/24/18 01:51:49

Academic license - for non-commercial use only

Gurobi 7.5.1 (win64, Python) logging started 04/24/18 01:53:12

Academic license - for non-commercial use only

Gurobi 7.5.1 (win64, Python) logging started 04/24/18 01:53:44

Academic license - for non-commercial use only

Gurobi 7.5.1 (win64, Python) logging started 04/24/18 02:03:19

Academic license - for non-commercial use only

Gurobi 7.5.1 (win64, Python) logging started 04/24/18 02:04:18

Academic license - for non-commercial use only

Gurobi 7.5.1 (win64, Python) logging started 04/24/18 02:05:46

Academic license - for non-commercial use only

Gurobi 7.5.1 (win64, Python) logging started 04/24/18 02:06:44

Academic license - for non-commercial use only

Gurobi 7.5.1 (win64, Python) logging started 04/24/18 02:09:00

Academic license - for non-commercial use only

Gurobi 7.5.1 (win64, Python) logging started 04/24/18 02:09:49

Academic license - for non-commercial use only
Parameter OutputFlag unchanged
   Value: 1  Min: 0  Max: 1  Default: 1
Optimize a model with 93 rows, 56 columns and 307 nonzeros
Variable types: 7 continuous, 49 integer (42 binary)
Coefficient statistics:
  Matrix range     [3e-01, 2e+01]
  Objective range  [5e-01, 1e+00]
  Bounds range     [1e+00, 1e+00]
  RHS range        [5e-01, 5e+01]
Found heuristic solution: objective 5.29297
Presolve removed 20 rows and 11 columns
Presolve time: 0.00s
Presolved: 73 rows, 45 columns, 230 nonzeros
Variable types: 6 continuous, 39 integer (33 binary)

Root relaxation: objective 4.645291e+00, 29 iterations, 0.00 seconds

    Nodes    |    Current Node    |     Objective Bounds      |     Work
 Expl Unexpl |  Obj  Depth IntInf | Incumbent    BestBd   Gap | It/Node Time

     0     0    4.64529    0   11    5.29297    4.64529  12.2%     -    0s
     0     0    4.69185    0   14    5.29297    4.69185  11.4%     -    0s
     0     0    4.69185    0   13    5.29297    4.69185  11.4%     -    0s
     0     0    4.74277    0   17    5.29297    4.74277  10.4%     -    0s
     0     0    4.88511    0   13    5.29297    4.88511  7.71%     -    0s
     0     0    4.93931    0   12    5.29297    4.93931  6.68%     -    0s
     0     0    4.93931    0   12    5.29297    4.93931  6.68%     -    0s
     0     0    4.97757    0   16    5.29297    4.97757  5.96%     -    0s
     0     0    4.99113    0   17    5.29297    4.99113  5.70%     -    0s
     0     0    5.02885    0   13    5.29297    5.02885  4.99%     -    0s
     0     0    5.02885    0   14    5.29297    5.02885  4.99%     -    0s
     0     0    5.02885    0   13    5.29297    5.02885  4.99%     -    0s
     0     0    5.03286    0   12    5.29297    5.03286  4.91%     -    0s
H    0     0                       5.2270163    5.03286  3.71%     -    0s
     0     0    5.03286    0   11    5.22702    5.03286  3.71%     -    0s
     0     0    5.03286    0   12    5.22702    5.03286  3.71%     -    0s
     0     2    5.03286    0   12    5.22702    5.03286  3.71%     -    0s

Cutting planes:
  Learned: 2
  Implied bound: 2
  MIR: 19

Explored 29 nodes (313 simplex iterations) in 0.42 seconds
Thread count was 4 (of 4 available processors)

Solution count 2: 5.22702 5.29297 

Optimal solution found (tolerance 1.00e-04)
Best objective 5.227016293545e+00, best bound 5.227016293545e+00, gap 0.0000%
Parameter OutputFlag unchanged
   Value: 1  Min: 0  Max: 1  Default: 1
Optimize a model with 93 rows, 56 columns and 307 nonzeros
Variable types: 7 continuous, 49 integer (42 binary)
Coefficient statistics:
  Matrix range     [1e-02, 2e+01]
  Objective range  [5e-01, 4e+00]
  Bounds range     [1e+00, 1e+00]
  RHS range        [5e-01, 5e+01]
Found heuristic solution: objective 11.0893
Presolve removed 23 rows and 21 columns
Presolve time: 0.10s
Presolved: 70 rows, 35 columns, 204 nonzeros
Variable types: 6 continuous, 29 integer (23 binary)

Root relaxation: objective 1.046491e+01, 14 iterations, 0.00 seconds

    Nodes    |    Current Node    |     Objective Bounds      |     Work
 Expl Unexpl |  Obj  Depth IntInf | Incumbent    BestBd   Gap | It/Node Time

     0     0   10.46491    0    5   11.08927   10.46491  5.63%     -    0s
H    0     0                      10.7754324   10.46491  2.88%     -    0s
*    0     0               0      10.7328434   10.73284  0.00%     -    0s

Cutting planes:
  Learned: 2
  Implied bound: 1
  MIR: 5

Explored 1 nodes (21 simplex iterations) in 0.51 seconds
Thread count was 4 (of 4 available processors)

Solution count 3: 10.7328 10.7754 11.0893 

Optimal solution found (tolerance 1.00e-04)
Best objective 1.073284339758e+01, best bound 1.073284339758e+01, gap 0.0000%
Parameter OutputFlag unchanged
   Value: 1  Min: 0  Max: 1  Default: 1
Optimize a model with 47 rows, 30 columns and 141 nonzeros
Variable types: 5 continuous, 25 integer (20 binary)
Coefficient statistics:
  Matrix range     [6e-01, 1e+01]
  Objective range  [5e-01, 9e-01]
  Bounds range     [1e+00, 1e+00]
  RHS range        [1e+00, 5e+01]
Found heuristic solution: objective 3.21518
Presolve removed 14 rows and 5 columns
Presolve time: 0.00s
Presolved: 33 rows, 25 columns, 102 nonzeros
Variable types: 4 continuous, 21 integer (17 binary)

Root relaxation: objective 3.075851e+00, 11 iterations, 0.00 seconds

    Nodes    |    Current Node    |     Objective Bounds      |     Work
 Expl Unexpl |  Obj  Depth IntInf | Incumbent    BestBd   Gap | It/Node Time

     0     0    3.07585    0    7    3.21518    3.07585  4.33%     -    0s
     0     0    3.12525    0   10    3.21518    3.12525  2.80%     -    0s
     0     0    3.12525    0   10    3.21518    3.12525  2.80%     -    0s
     0     0    3.16480    0   14    3.21518    3.16480  1.57%     -    0s
     0     0    3.18445    0   11    3.21518    3.18445  0.96%     -    0s
     0     0     cutoff    0         3.21518    3.21518  0.00%     -    0s

Cutting planes:
  Learned: 1
  Gomory: 1
  MIR: 7

Explored 1 nodes (38 simplex iterations) in 0.28 seconds
Thread count was 4 (of 4 available processors)

Solution count 1: 3.21518 

Optimal solution found (tolerance 1.00e-04)
Best objective 3.215175857261e+00, best bound 3.215175857261e+00, gap 0.0000%
Parameter OutputFlag unchanged
   Value: 1  Min: 0  Max: 1  Default: 1
Optimize a model with 68 rows, 42 columns and 216 nonzeros
Variable types: 6 continuous, 36 integer (30 binary)
Coefficient statistics:
  Matrix range     [1e+00, 2e+01]
  Objective range  [6e-01, 1e+00]
  Bounds range     [1e+00, 1e+00]
  RHS range        [1e+00, 5e+01]
Presolve removed 16 rows and 2 columns
Presolve time: 0.00s
Presolved: 52 rows, 40 columns, 180 nonzeros
Variable types: 5 continuous, 35 integer (30 binary)

Root relaxation: objective 4.384649e+00, 20 iterations, 0.00 seconds

    Nodes    |    Current Node    |     Objective Bounds      |     Work
 Expl Unexpl |  Obj  Depth IntInf | Incumbent    BestBd   Gap | It/Node Time

     0     0    4.38465    0    4          -    4.38465      -     -    0s
     0     0    4.39683    0   12          -    4.39683      -     -    0s
     0     0    4.40636    0    8          -    4.40636      -     -    0s
     0     0    4.42089    0   14          -    4.42089      -     -    0s
     0     0    4.42089    0   14          -    4.42089      -     -    0s
     0     0    4.44046    0   13          -    4.44046      -     -    0s
     0     0    4.44046    0   12          -    4.44046      -     -    0s
     0     0    4.44046    0   12          -    4.44046      -     -    0s
     0     0    4.44046    0   12          -    4.44046      -     -    0s
     0     0    4.44046    0   12          -    4.44046      -     -    0s
H    0     0                       5.2290673    4.44046  15.1%     -    0s
     0     2    4.44046    0   12    5.22907    4.44046  15.1%     -    0s
*   20     5               5       4.7039577    4.63528  1.46%   6.6    0s

Cutting planes:
  Learned: 2
  Gomory: 1
  Implied bound: 1
  MIR: 6

Explored 23 nodes (211 simplex iterations) in 0.37 seconds
Thread count was 4 (of 4 available processors)

Solution count 2: 4.70396 5.22907 

Optimal solution found (tolerance 1.00e-04)
Best objective 4.703957701209e+00, best bound 4.703957701209e+00, gap 0.0000%
Parameter OutputFlag unchanged
   Value: 1  Min: 0  Max: 1  Default: 1
Optimize a model with 192 rows, 110 columns and 676 nonzeros
Variable types: 10 continuous, 100 integer (90 binary)
Coefficient statistics:
  Matrix range     [4e-02, 2e+01]
  Objective range  [4e-01, 7e-01]
  Bounds range     [1e+00, 1e+00]
  RHS range        [5e-01, 5e+01]
Presolve removed 28 rows and 17 columns
Presolve time: 0.01s
Presolved: 164 rows, 93 columns, 552 nonzeros
Variable types: 9 continuous, 84 integer (75 binary)

Root relaxation: objective 4.882710e+00, 35 iterations, 0.00 seconds

    Nodes    |    Current Node    |     Objective Bounds      |     Work
 Expl Unexpl |  Obj  Depth IntInf | Incumbent    BestBd   Gap | It/Node Time

     0     0    4.88271    0   10          -    4.88271      -     -    0s
     0     0    4.92918    0   18          -    4.92918      -     -    0s
     0     0    4.92918    0   18          -    4.92918      -     -    0s
     0     0    4.92942    0   18          -    4.92942      -     -    0s
     0     0    4.92942    0   18          -    4.92942      -     -    0s
     0     0    4.92942    0   18          -    4.92942      -     -    0s
     0     0    4.92942    0   18          -    4.92942      -     -    0s
H    0     0                       5.3779792    4.92942  8.34%     -    0s
     0     2    4.92942    0   18    5.37798    4.92942  8.34%     -    0s
*   43    29              16       5.2533061    4.93908  5.98%   8.3    0s
H  353    96                       5.2103533    4.98890  4.25%   8.1    0s

Cutting planes:
  Learned: 3
  Gomory: 2
  Cover: 3
  Implied bound: 3
  MIR: 18
  Inf proof: 10

Explored 925 nodes (7251 simplex iterations) in 1.08 seconds
Thread count was 4 (of 4 available processors)

Solution count 3: 5.21035 5.25331 5.37798 

Optimal solution found (tolerance 1.00e-04)
Best objective 5.210353308697e+00, best bound 5.210353308697e+00, gap 0.0000%
Parameter OutputFlag unchanged
   Value: 1  Min: 0  Max: 1  Default: 1
Optimize a model with 68 rows, 42 columns and 216 nonzeros
Variable types: 6 continuous, 36 integer (30 binary)
Coefficient statistics:
  Matrix range     [1e-02, 2e+01]
  Objective range  [4e-01, 6e-01]
  Bounds range     [1e+00, 1e+00]
  RHS range        [5e-01, 5e+01]
Found heuristic solution: objective 3.01153
Presolve removed 17 rows and 7 columns
Presolve time: 0.00s
Presolved: 51 rows, 35 columns, 162 nonzeros
Variable types: 5 continuous, 30 integer (25 binary)

Root relaxation: objective 2.846140e+00, 26 iterations, 0.00 seconds

    Nodes    |    Current Node    |     Objective Bounds      |     Work
 Expl Unexpl |  Obj  Depth IntInf | Incumbent    BestBd   Gap | It/Node Time

     0     0    2.84614    0   14    3.01153    2.84614  5.49%     -    0s
H    0     0                       2.9083103    2.84614  2.14%     -    0s
     0     0    2.87076    0   17    2.90831    2.87076  1.29%     -    0s
     0     0    2.87148    0   16    2.90831    2.87148  1.27%     -    0s
     0     0    2.88344    0   17    2.90831    2.88344  0.86%     -    0s
     0     0    2.88710    0   17    2.90831    2.88710  0.73%     -    0s
     0     0    2.89095    0   13    2.90831    2.89095  0.60%     -    0s
     0     0    2.89248    0   18    2.90831    2.89248  0.54%     -    0s
     0     0    2.89248    0   17    2.90831    2.89248  0.54%     -    0s
     0     0    2.89248    0   17    2.90831    2.89248  0.54%     -    0s
     0     2    2.89248    0   17    2.90831    2.89248  0.54%     -    0s

Cutting planes:
  Learned: 2
  Gomory: 1
  Implied bound: 1
  MIR: 6
  StrongCG: 1

Explored 6 nodes (83 simplex iterations) in 0.36 seconds
Thread count was 4 (of 4 available processors)

Solution count 2: 2.90831 3.01153 

Optimal solution found (tolerance 1.00e-04)
Best objective 2.908310276628e+00, best bound 2.908310276628e+00, gap 0.0000%
Parameter OutputFlag unchanged
   Value: 1  Min: 0  Max: 1  Default: 1
Optimize a model with 68 rows, 42 columns and 216 nonzeros
Variable types: 6 continuous, 36 integer (30 binary)
Coefficient statistics:
  Matrix range     [1e+00, 2e+01]
  Objective range  [5e-01, 2e+00]
  Bounds range     [1e+00, 1e+00]
  RHS range        [1e+00, 5e+01]
Found heuristic solution: objective 6.48741
Presolve removed 16 rows and 2 columns
Presolve time: 0.00s
Presolved: 52 rows, 40 columns, 180 nonzeros
Variable types: 5 continuous, 35 integer (30 binary)

Root relaxation: objective 6.046844e+00, 20 iterations, 0.00 seconds

    Nodes    |    Current Node    |     Objective Bounds      |     Work
 Expl Unexpl |  Obj  Depth IntInf | Incumbent    BestBd   Gap | It/Node Time

     0     0    6.04684    0   12    6.48741    6.04684  6.79%     -    0s
H    0     0                       6.1634844    6.04684  1.89%     -    0s
     0     0    6.11384    0    9    6.16348    6.11384  0.81%     -    0s
     0     0    6.11384    0    8    6.16348    6.11384  0.81%     -    0s
     0     0    6.11384    0    8    6.16348    6.11384  0.81%     -    0s
     0     0    6.11384    0    8    6.16348    6.11384  0.81%     -    0s
     0     0    6.11384    0    8    6.16348    6.11384  0.81%     -    0s
     0     0    6.11384    0    7    6.16348    6.11384  0.81%     -    0s
     0     2    6.11384    0    7    6.16348    6.11384  0.81%     -    0s

Cutting planes:
  Learned: 1
  MIR: 9

Explored 13 nodes (97 simplex iterations) in 0.29 seconds
Thread count was 4 (of 4 available processors)

Solution count 2: 6.16348 6.48741 

Optimal solution found (tolerance 1.00e-04)
Best objective 6.163484354931e+00, best bound 6.163484354931e+00, gap 0.0000%
Parameter OutputFlag unchanged
   Value: 1  Min: 0  Max: 1  Default: 1
Optimize a model with 155 rows, 90 columns and 537 nonzeros
Variable types: 9 continuous, 81 integer (72 binary)
Coefficient statistics:
  Matrix range     [6e-01, 2e+01]
  Objective range  [5e-01, 2e+00]
  Bounds range     [1e+00, 1e+00]
  RHS range        [5e-01, 5e+01]
Presolve removed 31 rows and 43 columns
Presolve time: 0.11s
Presolved: 124 rows, 47 columns, 352 nonzeros
Variable types: 8 continuous, 39 integer (31 binary)

Root relaxation: objective 7.132056e+00, 29 iterations, 0.00 seconds

    Nodes    |    Current Node    |     Objective Bounds      |     Work
 Expl Unexpl |  Obj  Depth IntInf | Incumbent    BestBd   Gap | It/Node Time

     0     0    7.13206    0   10          -    7.13206      -     -    0s
     0     0    8.28680    0   17          -    8.28680      -     -    0s
     0     0    8.37877    0   18          -    8.37877      -     -    0s
     0     0    8.37877    0   21          -    8.37877      -     -    0s
     0     0    8.37877    0   21          -    8.37877      -     -    0s
     0     0    8.37877    0   21          -    8.37877      -     -    0s
     0     0    8.37877    0   21          -    8.37877      -     -    0s
     0     2    8.37877    0   21          -    8.37877      -     -    0s

Cutting planes:
  Learned: 1
  Gomory: 5
  MIR: 9

Explored 42 nodes (386 simplex iterations) in 0.61 seconds
Thread count was 4 (of 4 available processors)

Solution count 0

Model is infeasible
Best objective -, best bound -, gap -

Gurobi 7.5.1 (win64, Python) logging started 04/24/18 02:10:42

Academic license - for non-commercial use only

Gurobi 7.5.1 (win64, Python) logging started 04/24/18 02:11:11

Academic license - for non-commercial use only

Gurobi 7.5.1 (win64, Python) logging started 04/24/18 02:11:43

Academic license - for non-commercial use only

Gurobi 7.5.1 (win64, Python) logging started 04/24/18 02:13:43

Academic license - for non-commercial use only

Gurobi 7.5.1 (win64, Python) logging started 04/24/18 02:14:28

Academic license - for non-commercial use only

Gurobi 7.5.1 (win64, Python) logging started 04/24/18 02:14:50

Academic license - for non-commercial use only

Gurobi 7.5.1 (win64, Python) logging started 04/24/18 02:15:14

Academic license - for non-commercial use only

Gurobi 7.5.1 (win64, Python) logging started 04/24/18 02:15:33

Academic license - for non-commercial use only

Gurobi 7.5.1 (win64, Python) logging started 04/24/18 02:16:19

Academic license - for non-commercial use only

Gurobi 7.5.1 (win64, Python) logging started 04/24/18 02:16:38

Academic license - for non-commercial use only

Gurobi 7.5.1 (win64, Python) logging started 04/24/18 02:16:51

Academic license - for non-commercial use only

Gurobi 7.5.1 (win64, Python) logging started 04/24/18 02:17:43

Academic license - for non-commercial use only

Gurobi 7.5.1 (win64, Python) logging started 04/24/18 02:20:06

Academic license - for non-commercial use only

Gurobi 7.5.1 (win64, Python) logging started 04/24/18 02:20:57

Academic license - for non-commercial use only

Gurobi 7.5.1 (win64, Python) logging started 04/24/18 02:22:22

Academic license - for non-commercial use only

Gurobi 7.5.1 (win64, Python) logging started 04/24/18 02:25:36

Academic license - for non-commercial use only

Gurobi 7.5.1 (win64, Python) logging started 04/24/18 02:26:59

Academic license - for non-commercial use only

Gurobi 7.5.1 (win64, Python) logging started 04/24/18 02:28:19

Academic license - for non-commercial use only

Gurobi 7.5.1 (win64, Python) logging started 04/24/18 02:31:37

Academic license - for non-commercial use only

Gurobi 7.5.1 (win64, Python) logging started 04/24/18 02:32:07

Academic license - for non-commercial use only

Gurobi 7.5.1 (win64, Python) logging started 04/24/18 02:33:30

Academic license - for non-commercial use only

Gurobi 7.5.1 (win64, Python) logging started 04/24/18 02:33:50

Academic license - for non-commercial use only

Gurobi 7.5.1 (win64, Python) logging started 04/24/18 02:34:14

Academic license - for non-commercial use only

Gurobi 7.5.1 (win64, Python) logging started 04/24/18 02:37:17

Academic license - for non-commercial use only

Gurobi 7.5.1 (win64, Python) logging started 04/24/18 02:48:15

Academic license - for non-commercial use only

Gurobi 7.5.1 (win64, Python) logging started 04/24/18 02:53:22

Academic license - for non-commercial use only

Gurobi 7.5.1 (win64, Python) logging started 04/24/18 02:53:40

Academic license - for non-commercial use only

Gurobi 7.5.1 (win64, Python) logging started 04/24/18 03:00:14

Academic license - for non-commercial use only

Gurobi 7.5.1 (win64, Python) logging started 04/24/18 03:01:54

Academic license - for non-commercial use only

Gurobi 7.5.1 (win64, Python) logging started 04/24/18 03:05:31

Academic license - for non-commercial use only

Gurobi 7.5.1 (win64, Python) logging started 04/24/18 03:13:58

Academic license - for non-commercial use only

Gurobi 7.5.1 (win64, Python) logging started 04/24/18 03:18:43

Academic license - for non-commercial use only

Gurobi 7.5.1 (win64, Python) logging started 04/24/18 03:21:22

Academic license - for non-commercial use only

Gurobi 7.5.1 (win64, Python) logging started 04/24/18 03:25:36

Academic license - for non-commercial use only

Gurobi 7.5.1 (win64, Python) logging started 04/24/18 03:30:14

Academic license - for non-commercial use only

Gurobi 7.5.1 (win64, Python) logging started 04/24/18 03:31:17

Academic license - for non-commercial use only

Gurobi 7.5.1 (win64, Python) logging started 04/24/18 03:34:23

Academic license - for non-commercial use only

Gurobi 7.5.1 (win64, Python) logging started 04/24/18 03:35:50

Academic license - for non-commercial use only

Gurobi 7.5.1 (win64, Python) logging started 04/24/18 03:40:38

Academic license - for non-commercial use only

Gurobi 7.5.1 (win64, Python) logging started 04/24/18 19:44:24

Academic license - for non-commercial use only

Gurobi 7.5.1 (win64, Python) logging started 04/25/18 19:15:37

Academic license - for non-commercial use only

Gurobi 7.5.1 (win64, Python) logging started 04/26/18 17:26:17

Academic license - for non-commercial use only

Gurobi 7.5.1 (win64, Python) logging started 04/26/18 17:33:13

Academic license - for non-commercial use only

Gurobi 7.5.1 (win64, Python) logging started 04/26/18 17:36:12

Academic license - for non-commercial use only

Gurobi 7.5.1 (win64, Python) logging started 04/26/18 17:38:21

Academic license - for non-commercial use only

Gurobi 7.5.1 (win64, Python) logging started 04/26/18 17:49:49

Academic license - for non-commercial use only

Gurobi 7.5.1 (win64, Python) logging started 04/26/18 18:24:48

Academic license - for non-commercial use only

Gurobi 7.5.1 (win64, Python) logging started 04/26/18 18:26:47

Academic license - for non-commercial use only

Gurobi 7.5.1 (win64, Python) logging started 04/26/18 18:27:56

Academic license - for non-commercial use only

Gurobi 7.5.1 (win64, Python) logging started 04/26/18 18:34:42

Academic license - for non-commercial use only

Gurobi 7.5.1 (win64, Python) logging started 04/26/18 18:35:34

Academic license - for non-commercial use only

Gurobi 7.5.1 (win64, Python) logging started 04/26/18 18:37:12

Academic license - for non-commercial use only

Gurobi 7.5.1 (win64, Python) logging started 04/26/18 18:41:08

Academic license - for non-commercial use only

Gurobi 7.5.1 (win64, Python) logging started 04/26/18 18:42:00

Academic license - for non-commercial use only

Gurobi 7.5.1 (win64, Python) logging started 04/26/18 18:46:17

Academic license - for non-commercial use only

Gurobi 7.5.1 (win64, Python) logging started 04/26/18 18:49:27

Academic license - for non-commercial use only

Gurobi 7.5.1 (win64, Python) logging started 04/26/18 18:52:08

Academic license - for non-commercial use only

Gurobi 7.5.1 (win64, Python) logging started 04/26/18 19:08:45

Academic license - for non-commercial use only

Gurobi 7.5.1 (win64, Python) logging started 04/26/18 19:10:17

Academic license - for non-commercial use only

Gurobi 7.5.1 (win64, Python) logging started 04/26/18 19:10:59

Academic license - for non-commercial use only

Gurobi 7.5.1 (win64, Python) logging started 04/26/18 19:14:52

Academic license - for non-commercial use only

Gurobi 7.5.1 (win64, Python) logging started 04/27/18 19:08:48

Academic license - for non-commercial use only

Gurobi 7.5.1 (win64, Python) logging started 04/28/18 14:29:46

Academic license - for non-commercial use only

Gurobi 7.5.1 (win64, Python) logging started 05/02/18 20:21:02

Academic license - for non-commercial use only

Gurobi 7.5.1 (win64, Python) logging started 05/02/18 21:23:06

Academic license - for non-commercial use only

Gurobi 7.5.1 (win64, Python) logging started 05/02/18 21:23:20

Academic license - for non-commercial use only

Gurobi 7.5.1 (win64, Python) logging started 05/03/18 20:04:19

Academic license - for non-commercial use only

Gurobi 7.5.1 (win64, Python) logging started 05/03/18 20:13:58

Academic license - for non-commercial use only

Gurobi 7.5.1 (win64, Python) logging started 05/03/18 20:14:06

Academic license - for non-commercial use only

Gurobi 7.5.1 (win64, Python) logging started 05/03/18 20:57:26

Academic license - for non-commercial use only

Gurobi 7.5.1 (win64, Python) logging started 05/03/18 21:10:37

Academic license - for non-commercial use only

Gurobi 7.5.1 (win64, Python) logging started 05/03/18 21:17:25

Academic license - for non-commercial use only

Gurobi 7.5.1 (win64, Python) logging started 05/03/18 21:22:14

Academic license - for non-commercial use only

Gurobi 7.5.1 (win64, Python) logging started 05/03/18 21:28:09

Academic license - for non-commercial use only

Gurobi 7.5.1 (win64, Python) logging started 05/03/18 21:28:16

Academic license - for non-commercial use only

Gurobi 7.5.1 (win64, Python) logging started 05/03/18 21:31:35

Academic license - for non-commercial use only

Gurobi 7.5.1 (win64, Python) logging started 05/04/18 18:37:41

Academic license - for non-commercial use only

Gurobi 7.5.1 (win64, Python) logging started 05/08/18 05:56:34

Academic license - for non-commercial use only

Gurobi 7.5.1 (win64, Python) logging started 05/10/18 23:51:43

Academic license - for non-commercial use only

Gurobi 7.5.1 (win64, Python) logging started 05/17/18 18:11:43

Academic license - for non-commercial use only

Gurobi 7.5.1 (win64, Python) logging started 05/17/18 20:02:13

Academic license - for non-commercial use only
